47 44 45 46 91 93 92 85 86 87 90 89 88 77 76 64 75 74 73 94 97 98 96 95 118 119 120 121 122 123 71 72 65 66 67 68 70 69 124 125 126 127 128 129 130 131 132 133 134 135 136 137 138 139 140 141 142 143 144 158 157 145 146 151 150 149 152 148 147 153 156 159 155 154 165 164 166 167 163 168 162 160 161 113 112 114 111 110 115 116 117 106 105 104 103 102 101 100 99 552 553 554 555 556 557 558 559 550 551 549 548 545 546 547 544 543 541 542 107 109 108 173 174 172 170 171 169 180 181 179 182 178 177 175 176 540 538 537 539 478 477 479 480 476 475 482 481 483 485 484 536 535 487 486 534 188 187 186 185 183 184 194 195 196 197 198 199 200 201 202 204 203 208 207 206 205 209 210 211 212 213 214 215 216 217 223 224 222 221 220 218 219 193 192 191 190 226 225 189 227 228 229 230 231 233 232 234 235 236 237 240 239 238 246 247 245 244 243 242 241 248 249 250 251 252 254 253 255 256 257 300 258 259 260 261 262 299 298 297 296 295 294 293 270 269 268 267 266 265 263 264 271 272 273 274 275 292 291 290 289 288 276 277 278 279 282 281 280 287 286 285 284 283 334 335 336 337 338 339 333 332 331 330 340 341 344 343 342 365 368 367 366 329 328 327 326 325 324 323 322 373 374 315 314 316 317 321 320 319 318 305 306 304 307 303 301 302 508 507 506 509 510 511 513 512 528 529 530 531 532 533 488 489 490 491 492 493 524 525 523 526 527 514 515 516 517 522 521 520 518 519 498 502 503 504 505 308 309 310 313 312 311 451 501 500 499 452 453 440 441 450 449 448 447 446 442 439 443 444 445 431 382 386 383 384 409 408 385 387 388 389 390 391 392 381 380 379 378 377 376 375 393 394 395 396 371 372 370 369 398 397 399 407 406 405 404 400 403 402 401 360 359 358 361 363 364 345 346 362 347 348 349 350 351 415 416 414 413 352 353 354 355 357 356 412 411 410 418 417 419 420 421 422 423 424 425 426 427 428 429 430 432 433 434 435 436 437 438 454 455 456 457 458 2 3 4 1 0 5 573 572 6 7 8 9 10 11 15 16 17 18 19 20 568 569 570 571 460 459 461 462 463 497 496 464 465 466 467 468 469 470 495 494 471 472 473 474 567 566 565 564 563 562 560 561 29 28 27 26 25 24 21 14 13 12 23 22 31 30 32 34 33 36 37 38 35 40 41 39 42 43 55 56 58 59 60 61 63 62 78 79 80 81 57 82 83 84 51 50 52 53 54 49 48